data/solutions/recovery/wellformed/moderate/binding/wellformed_moderate_instance11/37.sol
Elapsed time: 0.02
Upper bound: 11391.0
Planning weighted value: 74294.0
C[0]=11391.0
C[1]=11242.0
C[2]=10839.0
y[0]=0
y[1]=2
y[2]=1
y[3]=0
y[4]=2
y[5]=2
y[6]=1
y[7]=1
y[8]=2
y[9]=0
y[10]=2
y[11]=2
y[12]=2
y[13]=1
y[14]=1
y[15]=0
y[16]=1
y[17]=0
y[18]=0
y[19]=0
y[20]=0
y[21]=0
y[22]=1
y[23]=2
y[24]=0
y[25]=1
y[26]=0
y[27]=2
y[28]=0
y[29]=1
y[30]=0
y[31]=1
y[32]=2
